33D32945 STP File, STP Format Version 1.0

SECTION Comments
Name "edge_n14_d3_s13"
Problem "Euclidean Steiner Tree Problem"
Remark "Generated with STPGenerator. 3 dimensions."
END

SECTION Graph
Nodes 14
END

SECTION Coordinates
DDD 0 0.6326431831 0.6326431831 0.6326431831
DDD 1 0.3414155828 0.3414155828 0.3414155828
DDD 2 0.9041099250 0.9041099250 0.9041099250
DDD 3 0.1300345134 0.1300345134 0.1300345134
DDD 4 0.6083626135 0.6083626135 0.6083626135
DDD 5 0.3345068657 0.3345068657 0.3345068657
DDD 6 0.1558290944 0.1558290944 0.1558290944
DDD 7 0.7948272283 0.7948272283 0.7948272283
DDD 8 0.9282009350 0.9282009350 0.9282009350
DDD 9 0.5560647936 0.5560647936 0.5560647936
DDD 10 0.0749040051 0.0749040051 0.0749040051
DDD 11 0.0531665883 0.0531665883 0.0531665883
DDD 12 0.1637372478 0.1637372478 0.1637372478
DDD 13 0.1157799243 0.1157799243 0.1157799243
END
